WARNING: for repeatability, setting FPU to use double precision
============================[ Problem Statistics ]=============================
|                                                                             |
|  Number of variables:           100                                         |
|  Number of clauses:             449                                         |
|  Parse time:                   0.00 s                                       |
|  Simplification time:          0.00 s                                       |
|                                                                             |
============================[ Search Statistics ]==============================
| Conflicts |          ORIGINAL         |          LEARNT          | Progress |
|           |    Vars  Clauses Literals |    Limit  Clauses Lit/Cl |          |
===============================================================================
|       100 |     100      448     1344 |      164      100      8 |  0.010 % |
|       250 |     100      448     1344 |      180      164      6 |  0.010 % |
|       475 |      99      434     1302 |      198       86      6 |  1.010 % |
===============================================================================
restarts              : 5
conflicts             : 576            (96888 /sec)
decisions             : 718            (0.00 % random) (120774 /sec)
propagations          : 13528          (2275526 /sec)
conflict literals     : 3628           (18.53 % deleted)
Memory used           : 13.00 MB
CPU time              : 0.005945 s

SATISFIABLE
